SDVRP instances/custom_instances/p01_3_split0.vrp
NAME:p01_3_split
BEST_KNOWN: 0
COMMENT: 0
DIMENSION: 211
CAPACITY: 160
EDGE_WEIGHT_FORMAT: FUNCTION
EDGE_WEIGHT_TYPE: EXACT_2D
NODE_COORD_SECTION
1 0.00000 0.00000
2 -48 23
3 -48 23
4 18 29
5 18 29
6 18 29
7 48 -6
8 48 -6
9 48 -6
10 48 -6
11 48 -6
12 29 -34
13 29 -34
14 29 -34
15 29 -34
16 29 -34
17 -45 28
18 -45 28
19 -45 28
20 -45 28
21 -45 28
22 -45 28
23 43 -5
24 43 -5
25 -10 5
26 -10 5
27 -10 5
28 -10 5
29 -10 5
30 1 28
31 1 28
32 1 28
33 1 28
34 1 28
35 24 3
36 24 3
37 5 1
38 5 1
39 5 1
40 5 1
41 5 1
42 -15 -12
43 -15 -12
44 -15 -12
45 -15 -12
46 5 -13
47 5 -13
48 5 -13
49 5 -13
50 5 -13
51 -12 -9
52 -12 -9
53 -12 -9
54 -12 -9
55 7 8
56 7 8
57 7 8
58 7 8
59 -15 23
60 -15 23
61 -15 23
62 13 -8
63 13 -8
64 13 -8
65 13 -8
66 13 -8
67 -7 -39
68 -7 -39
69 -7 -39
70 -7 -39
71 -7 -39
72 10 -28
73 10 -28
74 10 -28
75 10 -28
76 10 -28
77 -40 1
78 -40 1
79 -40 1
80 -40 1
81 -40 1
82 -40 1
83 -13 1
84 -13 1
85 -13 1
86 -13 1
87 3 -40
88 3 -40
89 3 -40
90 3 -40
91 13 -19
92 13 -19
93 13 -19
94 13 -19
95 13 -19
96 13 -19
97 -43 -30
98 -43 -30
99 -43 -30
100 27 25
101 27 25
102 27 25
103 14 23
104 14 23
105 14 23
106 -21 -2
107 -21 -2
108 -21 -2
109 15 -4
110 15 -4
111 15 -4
112 15 -4
113 15 -4
114 -8 -41
115 -8 -41
116 -8 -41
117 -8 -41
118 -28 8
119 -28 8
120 -28 8
121 -28 8
122 -28 8
123 -28 8
124 -28 8
125 -5 -8
126 -5 -8
127 -50 -10
128 -50 -10
129 -50 -10
130 44 46
131 44 46
132 44 46
133 44 46
134 44 46
135 -41 21
136 -41 21
137 -41 21
138 -41 21
139 -26 -26
140 -26 -26
141 -26 -26
142 -26 -26
143 -26 -26
144 -26 -26
145 -43 32
146 -43 32
147 32 -40
148 32 -40
149 32 -40
150 32 -40
151 -33 25
152 -33 25
153 -33 25
154 -33 25
155 -33 25
156 -33 25
157 39 -28
158 39 -28
159 39 -28
160 39 -28
161 39 -28
162 35 -32
163 35 -32
164 35 -32
165 35 -32
166 35 -32
167 35 -32
168 35 -32
169 40 49
170 40 49
171 40 49
172 40 49
173 -42 2
174 -42 2
175 -42 2
176 16 -3
177 16 -3
178 16 -3
179 -20 33
180 -20 33
181 -20 33
182 27 -34
183 27 -34
184 27 -34
185 27 -34
186 27 -34
187 27 -34
188 21 16
189 21 16
190 21 16
191 21 16
192 38 -45
193 38 -45
194 38 -45
195 38 -45
196 38 -45
197 38 -45
198 12 31
199 12 31
200 12 31
201 12 31
202 12 31
203 12 31
204 45 22
205 45 22
206 45 22
207 9 -39
208 9 -39
209 -10 28
210 -10 28
211 -10 28
DEMAND_SECTION
1 0
2 32
3 1
4 32
5 16
6 8
7 32
8 8
9 2
10 2
11 2
12 32
13 16
14 2
15 2
16 1
17 32
18 8
19 2
20 2
21 2
22 1
23 32
24 32
25 32
26 32
27 2
28 2
29 2
30 32
31 16
32 8
33 2
34 1
35 32
36 2
37 32
38 8
39 2
40 2
41 2
42 32
43 8
44 2
45 1
46 32
47 8
48 2
49 2
50 2
51 32
52 32
53 2
54 1
55 32
56 32
57 8
58 2
59 16
60 8
61 2
62 16
63 2
64 2
65 2
66 1
67 32
68 16
69 8
70 2
71 2
72 32
73 32
74 2
75 2
76 2
77 16
78 8
79 2
80 2
81 2
82 1
83 32
84 16
85 2
86 2
87 32
88 16
89 2
90 2
91 32
92 32
93 8
94 2
95 2
96 1
97 32
98 32
99 2
100 32
101 32
102 2
103 32
104 32
105 8
106 32
107 2
108 2
109 32
110 16
111 8
112 2
113 2
114 32
115 2
116 2
117 2
118 32
119 16
120 8
121 2
122 2
123 2
124 1
125 32
126 2
127 32
128 32
129 2
130 32
131 16
132 8
133 2
134 1
135 32
136 32
137 2
138 1
139 32
140 32
141 8
142 2
143 2
144 2
145 16
146 8
147 16
148 8
149 2
150 2
151 16
152 8
153 2
154 2
155 2
156 1
157 32
158 8
159 2
160 2
161 2
162 32
163 16
164 8
165 2
166 2
167 2
168 1
169 32
170 8
171 2
172 1
173 16
174 8
175 1
176 32
177 32
178 16
179 32
180 2
181 2
182 32
183 8
184 2
185 2
186 2
187 1
188 32
189 32
190 2
191 2
192 32
193 32
194 8
195 2
196 2
197 1
198 32
199 32
200 8
201 2
202 2
203 2
204 32
205 32
206 16
207 32
208 32
209 32
210 2
211 2
DEPOT_SECTION
1
-1
EOF