SDVRP instances/custom_instances/p01_3_split0.sol
210 -4 5 3 168 171 169 170 132 133 130 131 129 -13 11 12 166 163 164 167 165 161 162 157 156 159 160 158 -14 15 196 193 194 195 192 191 147 146 148 149 181 183 182 185 186 184 93 95 -24 28 26 27 25 -33 29 30 31 32 208 209 210 178 180 179 58 60 59 -35 34 10 9 7 6 8 22 23 177 -38 37 205 203 204 99 100 101 -39 36 40 175 176 112 109 108 110 111 -44 42 43 96 98 97 141 143 142 138 139 140 -47 48 49 46 45 92 94 90 91 61 65 63 62 64 -51 52 53 50 41 124 125 -54 56 55 57 190 189 188 187 -67 68 69 70 66 114 116 115 113 88 86 87 89 -72 71 75 73 74 207 206 -84 83 82 119 123 117 120 136 137 134 135 -85 78 76 80 81 77 79 174 172 173 127 126 128 106 105 107 -103 102 104 201 199 197 200 198 202 -122 118 121 1 2 17 18 16 19 20 21 144 145 155 150 152 153 154 151 0 





OBJ=
1515.497
BEST_KNOWN=
0.000